p edge 64 512
e 1 6
e 1 14
e 1 41
e 1 30
e 1 16
e 1 55
e 1 23
e 1 10
e 1 57
e 1 44
e 1 5
e 1 62
e 1 37
e 1 18
e 1 58
e 1 54
e 1 40
e 1 50
e 1 35
e 1 8
e 1 31
e 1 4
e 2 54
e 2 25
e 2 13
e 2 62
e 2 49
e 2 37
e 2 30
e 2 47
e 2 16
e 2 55
e 2 40
e 2 5
e 2 51
e 2 63
e 2 41
e 2 31
e 2 36
e 2 24
e 3 23
e 3 28
e 3 24
e 3 60
e 3 25
e 3 54
e 3 45
e 3 63
e 3 12
e 3 56
e 3 5
e 3 47
e 3 36
e 3 11
e 3 27
e 3 6
e 3 53
e 3 38
e 3 44
e 3 19
e 4 14
e 4 21
e 4 7
e 4 11
e 4 15
e 4 24
e 4 27
e 4 8
e 4 20
e 4 63
e 4 16
e 4 34
e 4 31
e 4 57
e 5 24
e 5 52
e 5 42
e 5 21
e 5 49
e 5 44
e 5 61
e 5 22
e 5 45
e 6 48
e 6 36
e 6 8
e 6 41
e 6 45
e 6 47
e 6 14
e 6 38
e 6 11
e 6 40
e 6 28
e 6 61
e 6 17
e 6 7
e 6 21
e 6 9
e 6 55
e 7 43
e 7 9
e 7 44
e 7 22
e 7 52
e 7 38
e 7 54
e 7 47
e 7 50
e 7 57
e 8 16
e 8 14
e 8 41
e 8 32
e 8 31
e 8 12
e 8 19
e 8 37
e 8 54
e 8 58
e 8 43
e 8 30
e 8 33
e 8 61
e 8 52
e 8 24
e 9 59
e 9 51
e 9 56
e 9 52
e 9 49
e 9 35
e 9 33
e 9 58
e 9 12
e 9 10
e 9 11
e 10 60
e 10 25
e 10 38
e 10 21
e 10 13
e 10 46
e 10 20
e 10 30
e 10 37
e 10 28
e 10 34
e 10 27
e 11 52
e 11 62
e 11 64
e 11 28
e 11 43
e 11 21
e 11 46
e 11 25
e 11 24
e 11 34
e 11 49
e 11 17
e 11 19
e 12 47
e 12 30
e 12 14
e 12 22
e 12 49
e 12 57
e 12 26
e 13 51
e 13 57
e 13 54
e 13 62
e 13 28
e 13 43
e 13 14
e 13 40
e 13 30
e 13 27
e 13 29
e 13 24
e 13 41
e 14 40
e 14 18
e 14 47
e 14 22
e 14 42
e 14 50
e 14 31
e 14 39
e 14 27
e 14 16
e 14 34
e 14 19
e 14 53
e 14 24
e 14 59
e 15 29
e 15 45
e 15 48
e 15 37
e 15 50
e 15 23
e 15 51
e 15 26
e 15 40
e 15 63
e 15 64
e 15 41
e 15 16
e 15 59
e 16 50
e 16 39
e 16 22
e 16 36
e 16 57
e 16 34
e 16 23
e 16 47
e 16 38
e 16 17
e 17 43
e 17 54
e 17 32
e 17 18
e 17 41
e 17 60
e 17 37
e 17 24
e 17 46
e 17 59
e 17 35
e 17 52
e 17 30
e 17 61
e 17 25
e 17 34
e 18 36
e 18 26
e 18 59
e 18 35
e 18 43
e 18 25
e 18 41
e 18 57
e 18 40
e 18 50
e 18 20
e 18 24
e 18 46
e 18 22
e 18 33
e 18 53
e 18 34
e 19 63
e 19 47
e 19 26
e 19 52
e 19 45
e 19 61
e 19 24
e 19 30
e 19 48
e 19 46
e 19 40
e 19 21
e 19 23
e 20 26
e 20 23
e 20 38
e 20 56
e 20 22
e 20 42
e 20 29
e 20 25
e 20 62
e 20 39
e 20 55
e 20 45
e 21 29
e 21 59
e 21 60
e 21 50
e 21 24
e 21 39
e 21 62
e 21 47
e 22 48
e 22 63
e 22 46
e 22 61
e 22 32
e 22 37
e 22 25
e 22 31
e 22 60
e 22 43
e 22 62
e 22 28
e 22 49
e 23 61
e 23 43
e 23 63
e 23 62
e 23 31
e 23 58
e 23 56
e 23 50
e 24 48
e 24 36
e 24 56
e 24 49
e 24 37
e 24 46
e 24 45
e 24 29
e 24 41
e 24 40
e 24 53
e 25 38
e 25 37
e 25 27
e 25 54
e 25 64
e 25 63
e 25 29
e 25 44
e 25 42
e 25 50
e 26 42
e 26 28
e 26 44
e 26 45
e 26 32
e 26 57
e 26 38
e 26 35
e 26 49
e 26 37
e 26 30
e 26 40
e 27 46
e 27 57
e 27 47
e 27 54
e 27 56
e 27 43
e 27 34
e 27 42
e 27 45
e 27 52
e 28 41
e 28 35
e 28 29
e 28 51
e 28 44
e 28 46
e 28 49
e 28 53
e 29 32
e 29 44
e 29 50
e 29 33
e 29 58
e 29 36
e 29 42
e 29 40
e 30 49
e 30 33
e 30 36
e 30 39
e 30 45
e 30 44
e 30 32
e 30 62
e 30 47
e 30 53
e 30 55
e 30 51
e 30 59
e 30 63
e 31 44
e 31 45
e 31 62
e 31 38
e 31 57
e 31 50
e 31 52
e 31 46
e 32 54
e 32 33
e 32 62
e 32 43
e 32 55
e 32 52
e 32 49
e 32 38
e 32 45
e 33 51
e 33 35
e 33 62
e 33 52
e 33 34
e 33 48
e 33 64
e 33 50
e 33 41
e 34 64
e 34 48
e 34 55
e 34 40
e 34 47
e 34 63
e 34 46
e 34 49
e 34 39
e 34 41
e 34 62
e 35 55
e 35 40
e 35 50
e 36 63
e 36 53
e 36 37
e 36 39
e 36 59
e 36 40
e 36 58
e 37 49
e 37 61
e 37 50
e 37 48
e 37 54
e 37 58
e 38 56
e 38 49
e 38 63
e 38 55
e 38 45
e 38 61
e 38 60
e 38 53
e 39 63
e 39 57
e 39 55
e 39 53
e 39 51
e 40 48
e 40 45
e 40 64
e 40 47
e 40 51
e 41 54
e 41 42
e 41 58
e 41 57
e 42 54
e 42 46
e 43 57
e 43 52
e 43 46
e 43 55
e 44 47
e 44 57
e 44 52
e 45 49
e 45 58
e 45 63
e 46 49
e 46 47
e 46 56
e 46 51
e 47 48
e 47 59
e 47 54
e 47 61
e 47 63
e 47 57
e 48 58
e 48 50
e 48 54
e 48 63
e 48 52
e 49 54
e 49 55
e 49 58
e 50 59
e 50 60
e 51 60
e 51 56
e 51 59
e 52 59
e 52 64
e 52 57
e 52 63
e 53 63
e 53 57
e 53 54
e 53 55
e 54 57
e 54 61
e 54 64
e 54 62
e 55 62
e 56 63
e 56 57
e 56 58
e 57 60
e 57 64
e 58 62
e 58 63
e 61 64
